c "648531.clq"
p edge 120 464
e 1 5
e 1 6
e 1 7
e 1 8
e 1 9
e 1 10
e 1 14
e 1 16
e 1 17
e 1 18
e 1 22
e 1 25
e 1 27
e 1 32
e 1 35
e 1 36
e 1 48
e 1 90
e 1 109
e 1 117
e 2 5
e 2 12
e 2 42
e 2 53
e 2 62
e 2 88
e 2 97
e 2 114
e 3 5
e 3 6
e 3 7
e 3 8
e 3 9
e 3 13
e 3 14
e 3 16
e 3 18
e 3 20
e 3 22
e 3 25
e 3 33
e 3 39
e 3 43
e 3 44
e 3 47
e 3 48
e 3 49
e 3 50
e 3 56
e 3 58
e 3 60
e 3 61
e 3 64
e 3 66
e 3 70
e 3 85
e 3 91
e 3 99
e 3 100
e 3 111
e 3 115
e 4 5
e 4 6
e 4 8
e 4 11
e 4 17
e 4 34
e 4 35
e 4 39
e 4 81
e 4 113
e 5 6
e 5 7
e 5 9
e 5 11
e 5 14
e 5 16
e 5 20
e 5 24
e 5 28
e 5 33
e 5 34
e 5 38
e 5 49
e 5 54
e 5 59
e 5 63
e 5 64
e 5 67
e 5 69
e 5 87
e 5 92
e 5 96
e 5 97
e 5 103
e 6 7
e 6 10
e 6 22
e 6 30
e 6 32
e 6 60
e 6 81
e 6 100
e 7 8
e 7 11
e 7 13
e 7 15
e 7 17
e 7 20
e 7 34
e 7 38
e 7 43
e 7 50
e 7 51
e 7 56
e 7 57
e 7 61
e 7 64
e 7 68
e 7 69
e 7 72
e 7 86
e 7 87
e 7 91
e 7 102
e 8 9
e 8 10
e 8 12
e 8 13
e 8 17
e 8 18
e 8 21
e 8 22
e 8 23
e 8 25
e 8 26
e 8 27
e 8 29
e 8 31
e 8 40
e 8 41
e 8 43
e 8 46
e 8 51
e 8 54
e 8 55
e 8 61
e 8 67
e 8 69
e 8 70
e 8 71
e 8 74
e 8 75
e 8 80
e 8 82
e 8 85
e 8 86
e 8 89
e 8 90
e 8 99
e 8 102
e 8 103
e 8 106
e 8 110
e 8 112
e 8 114
e 8 118
e 9 10
e 9 15
e 9 21
e 9 26
e 9 28
e 9 30
e 9 36
e 9 42
e 9 44
e 9 59
e 9 73
e 9 75
e 9 78
e 9 98
e 9 100
e 9 107
e 9 115
e 10 11
e 10 12
e 10 13
e 10 15
e 10 19
e 10 24
e 10 29
e 10 53
e 10 62
e 10 72
e 10 93
e 10 97
e 10 101
e 11 12
e 11 19
e 11 21
e 11 30
e 11 32
e 11 35
e 11 39
e 11 40
e 11 43
e 11 53
e 11 54
e 11 82
e 11 83
e 11 92
e 11 97
e 11 109
e 12 14
e 12 23
e 12 46
e 12 57
e 12 63
e 12 114
e 13 15
e 13 19
e 13 21
e 13 24
e 13 37
e 13 62
e 13 65
e 13 70
e 13 71
e 13 108
e 14 16
e 14 39
e 14 46
e 14 56
e 14 95
e 14 104
e 15 18
e 15 37
e 15 40
e 15 47
e 15 52
e 15 57
e 15 63
e 15 68
e 15 71
e 15 84
e 15 89
e 15 118
e 16 19
e 16 20
e 16 23
e 16 24
e 16 30
e 16 31
e 16 38
e 16 55
e 16 68
e 16 78
e 16 79
e 16 106
e 16 117
e 16 120
e 17 28
e 17 29
e 17 32
e 17 78
e 17 80
e 18 25
e 18 26
e 18 58
e 18 62
e 18 66
e 18 89
e 19 27
e 19 31
e 19 36
e 19 49
e 19 53
e 19 83
e 19 94
e 19 112
e 19 114
e 19 118
e 20 34
e 20 37
e 20 84
e 20 120
e 21 23
e 21 26
e 21 41
e 21 47
e 21 59
e 21 84
e 21 109
e 21 119
e 22 31
e 22 44
e 22 60
e 22 96
e 22 105
e 22 115
e 23 28
e 23 33
e 23 59
e 23 84
e 23 93
e 23 103
e 24 44
e 24 45
e 24 73
e 24 80
e 25 27
e 25 29
e 25 42
e 25 106
e 25 107
e 26 41
e 26 57
e 26 83
e 26 95
e 27 33
e 27 50
e 27 52
e 27 109
e 28 38
e 28 85
e 28 103
e 28 113
e 29 52
e 29 76
e 29 112
e 30 37
e 30 45
e 30 74
e 30 79
e 30 94
e 31 35
e 31 42
e 31 86
e 31 120
e 32 36
e 33 82
e 34 52
e 34 72
e 34 90
e 34 92
e 34 108
e 34 110
e 35 40
e 35 60
e 35 67
e 35 118
e 36 51
e 36 55
e 36 75
e 36 92
e 36 102
e 37 50
e 37 51
e 37 73
e 37 76
e 37 77
e 37 81
e 37 87
e 37 98
e 37 99
e 38 56
e 38 93
e 39 55
e 39 117
e 40 41
e 40 45
e 40 48
e 40 65
e 40 77
e 40 104
e 41 47
e 41 76
e 41 85
e 41 116
e 42 45
e 42 78
e 43 46
e 43 75
e 43 98
e 43 99
e 43 115
e 44 69
e 44 106
e 45 49
e 45 58
e 45 72
e 47 48
e 47 113
e 48 77
e 48 80
e 48 86
e 49 58
e 49 61
e 49 65
e 49 68
e 49 76
e 49 91
e 49 105
e 50 64
e 50 77
e 50 83
e 50 95
e 50 108
e 50 119
e 51 54
e 51 101
e 51 104
e 52 65
e 52 98
e 52 110
e 52 111
e 52 117
e 53 116
e 53 119
e 53 120
e 57 63
e 57 74
e 58 74
e 59 101
e 60 66
e 60 93
e 60 95
e 61 67
e 61 71
e 61 73
e 61 107
e 62 94
e 63 88
e 64 96
e 65 66
e 65 79
e 66 70
e 66 116
e 67 105
e 69 107
e 70 96
e 70 111
e 73 90
e 74 82
e 75 101
e 76 79
e 78 81
e 78 111
e 81 87
e 81 88
e 81 113
e 82 88
e 82 91
e 87 100
e 88 89
e 89 108
e 93 94
e 94 102
e 99 105
e 99 110
e 100 104
e 100 112
e 109 119
e 112 116
